NAME : random_2
COMMENT : 50 random nodes
TYPE : TSP
DIMENSION : 50
EDGE_WEIGHT_TYPE : EUC_2D
NODE_COORD_SECTION
1 691 745
2 937 809
3 925 155
4 549 676
5 426 207
6 381 342
7 77 255
8 810 560
9 966 722
10 125 87
11 669 948
12 377 642
13 85 821
14 122 553
15 991 845
16 1001 977
17 703 61
18 616 550
19 372 632
20 397 861
21 330 785
22 967 437
23 741 292
24 451 700
25 290 723
26 419 584
27 491 605
28 492 610
29 245 342
30 199 603
31 178 610
32 726 725
33 678 818
34 197 985
35 933 565
36 32 970
37 444 810
38 320 71
39 960 450
40 95 799
41 594 932
42 912 766
43 409 667
44 75 698
45 657 898
46 33 818
47 98 884
48 204 62
49 38 508
50 153 74
EOF